interdiction/MCDM/NO_CORR/GEN_FROM_60/17_ITEMS_1000_GEN/K5017W10.KNP.mps
NAME          BLANK   
ROWS
 N  OBJROW
 L  R0000000
COLUMNS
    C0000000  OBJROW     -406.         R0000000  384.        
    C0000001  OBJROW     -748.         R0000000  499.        
    C0000002  OBJROW     -598.         R0000000  782.        
    C0000003  OBJROW     -232.         R0000000  288.        
    C0000004  OBJROW     -876.         R0000000  923.        
    C0000005  OBJROW     -158.         R0000000  942.        
    C0000006  OBJROW     -803.         R0000000  66.         
    C0000007  OBJROW     -430.         R0000000  178.        
    C0000008  OBJROW     -189.         R0000000  705.        
    C0000009  OBJROW     -870.         R0000000  640.        
    C0000010  OBJROW     -734.         R0000000  104.        
    C0000011  OBJROW     -963.         R0000000  594.        
    C0000012  OBJROW     -133.         R0000000  584.        
    C0000013  OBJROW     -280.         R0000000  728.        
    C0000014  OBJROW     -377.         R0000000  464.        
    C0000015  OBJROW     -962.         R0000000  737.        
    C0000016  OBJROW     -576.         R0000000  272.        
RHS
    RHS       R0000000  15551.      
BOUNDS
 BV BOUND     C0000000  1.          
 BV BOUND     C0000001  1.          
 BV BOUND     C0000002  1.          
 BV BOUND     C0000003  1.          
 BV BOUND     C0000004  1.          
 BV BOUND     C0000005  1.          
 BV BOUND     C0000006  1.          
 BV BOUND     C0000007  1.          
 BV BOUND     C0000008  1.          
 BV BOUND     C0000009  1.          
 BV BOUND     C0000010  1.          
 BV BOUND     C0000011  1.          
 BV BOUND     C0000012  1.          
 BV BOUND     C0000013  1.          
 BV BOUND     C0000014  1.          
 BV BOUND     C0000015  1.          
 BV BOUND     C0000016  1.          
ENDATA
