data/MCDM/NO_CORR/GEN_FROM_60/17_ITEMS_1000_GEN/K5017W10.KNP.txt
N 17
M 18
LC 17
LC 18
LC 19
LC 20
LC 21
LC 22
LC 23
LC 24
LC 25
LC 26
LC 27
LC 28
LC 29
LC 30
LC 31
LC 32
LC 33
LR 1
LR 2
LR 3
LR 4
LR 5
LR 6
LR 7
LR 8
LR 9
LR 10
LR 11
LR 12
LR 13
LR 14
LR 15
LR 16
LR 17
LR 18
LO -406
LO -748
LO -598
LO -232
LO -876
LO -158
LO -803
LO -430
LO -189
LO -870
LO -734
LO -963
LO -133
LO -280
LO -377
LO -962
LO -576
OS 1
IC 183
IC 204
IC 549
IC 430
IC 632
IC 553
IC 699
IC 355
IC 463
IC 596
IC 149
IC 332
IC 991
IC 365
IC 380
IC 876
IC 191
IB 3974
